p cnf 18 29
9 11 -18 -12 -7 -4 0
-18 -16 17 -14 -10 -6 0
4 7 9 -12 -5 -2 0
2 5 -16 -8 -6 -1 0
6 9 13 15 -16 -3 0
3 5 9 15 -16 17 0
11 15 17 -14 -12 -7 0
2 5 9 15 -10 -1 0
1 13 15 -12 -10 -4 0
1 8 -14 -10 -7 -6 0
-14 5 0
3 -18 0
-16 -4 0
-8 15 0
1 11 0
-14 7 0
3 13 0
-8 -18 0
-6 -12 0
13 -2 0
-16 7 0
-4 5 0
-14 -4 0
3 -10 0
9 -18 15 17 -2 0
-16 -12 -18 15 0
-16 1 -14 -2 0
-16 17 18 -10 13 0
-12 5 -18 0
